n_res = 5;
n_events = 202;
n_prec = 1306;
source = 1;
sink = 202;
min_lvl = [-3, 9, -3, -16, -30];
max_lvl = [31, 52, 21, 2, -10];
rr = [| 0, -1, 2, -1, 2, 1, -2, -1, 2, 0, 2, 0, -1, 0, -1, -2, 1, -1, 0, 0, 1, 1, 2, 0, -1, 0, -2, -2, 0, 2, 2, 0, -1, -2, 2, -2, -1, 2, 0, -1, 2, 2, 0, 0, -1, -2, 0, 1, -2, 1, 2, -2, 1, 0, 1, 2, 1, 0, -1, -1, -1, -2, -1, -2, 2, -1, 2, 2, 0, 0, 2, -2, 0, 2, 0, -1, -1, -2, 2, -2, -2, 2, 1, 0, 0, 0, 2, 0, 2, -1, 2, -2, 0, 1, 0, -1, -1, 0, -1, 0, -2, 1, 0, 1, -1, 0, -2, 2, 2, 0, 0, -1, 1, -1, 0, 1, 2, 2, 0, 1, 0, -1, -2, 2, 1, 0, 2, 1, 0, -2, -2, 2, 2, -2, 2, 1, 2, 2, 2, 0, -2, 1, 2, 1, 1, 1, -2, 0, 2, 0, 0, -2, 0, 1, 2, -2, 0, 1, 2, 2, -2, -1, -2, -2, -2, -1, 1, 0, -1, 1, 2, 2, 1, 0, 1, 2, -2, 0, 0, 2, -1, 2, -1, -2, -1, -2, 0, 2, 1, 0, 2, 0, -2, 0, 0, 1, 2, 1, -1, 1, -1, 0
      | 0, -1, 1, -1, 0, 0, 1, 0, -2, 1, -1, 1, 0, 0, 2, 1, 0, 2, 0, -1, -1, 0, 1, -2, 0, 1, 1, -2, 0, 0, 2, 0, -1, 2, 1, 2, 1, -1, -2, -1, -1, -1, -1, 0, -2, -2, 0, 0, 0, -2, 0, -2, 1, -1, 1, 2, 1, 0, -2, -1, 0, 2, 0, -2, 0, 0, 2, 1, 2, 0, -1, 1, 1, 2, -1, -2, 2, 1, 2, 1, -1, -1, -2, 2, -2, 0, 2, 0, -1, -2, -1, -1, 0, 2, -1, 2, -2, 2, 0, 2, 1, -2, 0, -1, 2, -1, 0, 1, -1, 1, 2, 2, -2, 0, 1, 1, 1, -1, 1, -1, 0, -2, 0, -2, 0, 0, -2, 0, 2, -1, 0, 2, -1, 1, 0, 0, -1, 0, -1, -1, 2, 1, 2, 2, 2, -1, 2, 0, 1, 1, -2, 1, -1, 1, 2, -2, 2, 1, 2, -1, 1, 0, -1, 1, 1, 0, 2, 0, 1, 1, 1, 2, 1, 0, 0, 0, 2, 2, 2, -1, 2, -2, -2, -2, -2, 1, 2, 2, -1, 1, -1, -2, -2, 1, 1, 1, 2, 0, 2, 0, 2, 0
      | 0, -1, 2, -2, -1, 0, 1, 2, 1, 0, -1, -2, 0, -1, 2, 2, -2, 2, 0, 1, 0, -2, 2, 1, 2, 0, 0, -2, 2, 1, 1, -1, 1, 2, -1, 2, -2, -2, 2, 1, -1, -1, 0, 2, 1, -2, -1, -1, -1, 0, 0, 1, -1, -1, 0, -2, 1, -2, 1, -2, 0, -1, 0, 0, 0, -1, 0, -2, -2, 1, 2, 2, 2, 2, 0, 0, 1, -1, 1, 0, 1, -1, -2, 2, 1, 1, -2, 0, 1, 0, -1, -1, 0, 2, -1, 2, 2, -2, -1, 0, 1, -2, 0, 1, 1, -1, -2, -2, -1, -2, 0, 0, 2, 2, 0, 1, 0, 2, 1, 2, 0, -2, 0, 0, -2, -1, 2, 0, 1, 2, 0, -1, 1, 0, 0, -2, 0, -1, 1, 0, 2, -2, 0, -1, -2, -2, 0, 2, 2, -1, 0, 1, 1, 0, -1, 2, 0, -2, 2, 0, -1, 0, 2, 1, 0, -1, 2, 0, 1, -2, 1, -2, 0, -2, 1, 2, 1, 0, -1, 1, 1, 1, 1, -1, 2, 2, 0, -2, -1, 2, -1, -1, -2, 0, -1, 1, -2, 0, -1, 2, 0, 0
      | 0, -1, 2, -2, -1, 0, 2, -2, -2, 0, 0, -1, 1, 0, -1, 1, 1, 2, 2, 0, 2, -2, 1, -1, -2, 0, -1, 1, 0, -2, 0, -2, 1, -2, -2, 1, 0, 2, 2, 2, 1, 0, 0, 2, -1, -1, -1, -2, 2, 1, 0, -1, -1, 2, 0, 2, 2, -2, -2, -1, 0, -1, -1, 0, -1, -2, -2, 0, 2, -1, 2, 1, 0, 0, 0, 0, -2, -1, 1, 0, 2, 1, -2, 0, -2, -1, -1, -2, -2, 1, 1, -1, -1, 0, 0, 2, -2, 0, 0, 0, 1, -2, 1, -2, -1, 2, 1, -1, 2, -1, 1, 2, -2, 0, 0, -2, -1, 1, 0, 0, 2, 0, -1, -1, -2, 0, -1, -1, 2, -1, 1, 0, -2, 1, -1, 2, 0, 1, 1, 2, -2, -2, -2, 1, -2, 0, 2, 1, -2, -2, 1, 0, 0, -1, -2, 2, 0, 1, 1, -1, -1, 0, -1, 2, 2, 1, -1, 2, 1, 2, 0, 2, -2, -1, -1, -2, -2, -2, 0, 2, 2, -2, 2, 1, -2, 2, -1, 2, -2, 2, 2, 0, -1, -1, 0, 1, 1, 0, -2, 1, 0, 0
      | 0, 1, -1, 0, -1, -2, 0, 1, -2, -2, 0, 0, 2, -1, 0, 0, -2, 1, -1, -1, 1, 1, 1, 2, -2, -2, 0, -1, -2, 0, 0, -1, -2, 1, -1, -1, 2, -2, 1, -2, 1, -2, 0, 1, -1, 1, 0, -1, -1, 2, 0, 2, -1, -2, 0, -2, 0, 0, 1, -2, -1, 0, -2, 0, 1, 0, 2, 1, 0, -2, -1, 1, 0, -1, 2, -2, 2, -1, 2, -1, 0, 2, -1, 1, -1, 1, -2, 0, 2, -2, -1, 1, 0, 2, -2, 2, 0, 0, -2, 0, 2, -2, -2, -2, -2, 0, 0, -2, -1, -2, -2, 0, -2, 0, 1, -2, 2, -1, 0, -1, 2, -2, -1, 2, -2, 0, 0, -1, 0, -2, -2, 2, -1, 2, 0, 2, 2, 1, 2, 0, -2, -1, 1, 2, 1, 2, -1, 0, -1, 2, -1, 0, 2, -1, 1, 1, 0, -2, 0, -2, -1, 2, -1, 0, -2, 2, 2, 0, -1, 1, 1, 1, 0, 0, -2, 0, -2, 1, -1, 1, -1, 1, 2, 2, 0, -2, 1, 1, 0, -2, 2, 2, 0, -1, 0, 0, 0, 0, -1, 1, 0, 0 |];
prec = [| 1, 0, 2
        | 1, 0, 6
        | 1, 0, 8
        | 1, 0, 11
        | 1, 0, 5
        | 1, 0, 74
        | 1, 0, 3
        | 1, 0, 29
        | 1, 0, 12
        | 1, 0, 69
        | 1, 0, 13
        | 1, 0, 7
        | 1, 0, 4
        | 1, 0, 44
        | 1, 0, 16
        | 1, 0, 9
        | 1, 0, 15
        | 1, 0, 10
        | 1, 0, 14
        | 1, 0, 158
        | 1, 0, 57
        | 2, 0, 137
        | 2, 5, 126
        | 2, 12, 90
        | 2, 3, 182
        | 2, -1, 38
        | 2, 5, 46
        | 3, 15, 151
        | 3, 0, 166
        | 3, -2, 75
        | 3, -3, 156
        | 3, 0, 127
        | 3, 9, 129
        | 4, -4, 72
        | 4, -3, 151
        | 4, -5, 28
        | 4, 2, 178
        | 4, 11, 31
        | 5, 2, 166
        | 5, 17, 18
        | 5, 15, 51
        | 5, 10, 178
        | 5, -4, 67
        | 5, 2, 23
        | 5, -2, 26
        | 5, 8, 96
        | 6, 4, 136
        | 6, 3, 200
        | 6, 0, 162
        | 6, 0, 122
        | 6, 3, 62
        | 6, 5, 182
        | 7, 3, 201
        | 8, 3, 24
        | 8, 7, 103
        | 8, 18, 65
        | 8, -5, 53
        | 8, 17, 189
        | 8, 13, 56
        | 8, 15, 28
        | 8, 2, 200
        | 8, 3, 156
        | 9, -3, 23
        | 9, 5, 182
        | 9, 8, 142
        | 9, 1, 189
        | 9, 3, 98
        | 9, 8, 95
        | 9, 7, 101
        | 9, 0, 17
        | 9, 9, 162
        | 9, 3, 199
        | 10, -1, 195
        | 10, 2, 90
        | 10, 3, 97
        | 10, 0, 92
        | 10, 6, 112
        | 10, 4, 156
        | 10, -1, 29
        | 10, 3, 68
        | 10, -1, 185
        | 11, 2, 103
        | 11, 4, 35
        | 11, 0, 181
        | 11, 0, 88
        | 11, -1, 74
        | 12, 14, 116
        | 12, 7, 188
        | 12, 4, 73
        | 12, 17, 102
        | 12, 4, 133
        | 12, 6, 103
        | 13, 15, 53
        | 13, 10, 43
        | 13, 7, 134
        | 13, -4, 31
        | 13, -3, 191
        | 13, 11, 156
        | 14, -4, 129
        | 14, 9, 187
        | 14, 13, 200
        | 14, 5, 98
        | 15, 2, 186
        | 15, 3, 175
        | 15, -3, 57
        | 15, 0, 54
        | 15, 7, 120
        | 16, 23, 28
        | 16, 11, 103
        | 16, 8, 47
        | 16, -7, 200
        | 16, 11, 183
        | 16, 27, 147
        | 16, 21, 99
        | 16, 24, 53
        | 17, 6, 142
        | 17, -1, 128
        | 17, 2, 22
        | 17, 0, 178
        | 17, 3, 66
        | 18, 3, 157
        | 18, 2, 67
        | 18, 0, 76
        | 18, 3, 22
        | 18, 0, 36
        | 19, 0, 53
        | 19, 2, 86
        | 19, 0, 25
        | 19, 2, 31
        | 19, 0, 75
        | 19, 1, 110
        | 19, 0, 142
        | 19, 0, 126
        | 19, 0, 81
        | 19, 2, 58
        | 19, 2, 191
        | 19, 2, 90
        | 19, 1, 83
        | 20, 13, 22
        | 20, -4, 85
        | 20, 29, 72
        | 20, -9, 201
        | 20, 3, 25
        | 20, -6, 195
        | 21, 2, 191
        | 21, 2, 96
        | 21, 1, 176
        | 21, 0, 36
        | 21, 2, 53
        | 21, 0, 34
        | 21, -536, 10
        | 22, -7, 90
        | 22, 14, 156
        | 22, 30, 189
        | 22, -1, 24
        | 22, 18, 201
        | 23, 2, 98
        | 23, 0, 162
        | 23, 2, 156
        | 23, 8, 149
        | 23, -3, 126
        | 23, -1, 95
        | 24, 3, 201
        | 24, 0, 189
        | 24, 2, 103
        | 24, 0, 175
        | 24, 0, 126
        | 25, -1, 191
        | 25, 1, 175
        | 25, 1, 71
        | 25, 9, 86
        | 25, 3, 151
        | 25, 4, 160
        | 25, 8, 54
        | 25, -2, 83
        | 25, 3, 141
        | 25, 2, 26
        | 26, 0, 103
        | 26, 8, 201
        | 26, 1, 195
        | 26, 5, 189
        | 26, 6, 83
        | 26, 10, 200
        | 26, -5, 166
        | 26, -5, 71
        | 27, 2, 51
        | 27, 0, 146
        | 27, 1, 190
        | 27, 4, 105
        | 27, 0, 128
        | 27, 2, 101
        | 27, 6, 115
        | 28, -7, 103
        | 28, 19, 201
        | 28, -650, 99
        | 28, 11, 200
        | 28, -789, 95
        | 29, 26, 89
        | 29, 24, 134
        | 29, -3, 44
        | 29, -1, 76
        | 29, 21, 82
        | 29, 19, 186
        | 29, 10, 96
        | 29, 0, 103
        | 29, 27, 148
        | 30, 0, 160
        | 30, -1, 197
        | 30, 2, 35
        | 31, -3, 129
        | 31, -2, 86
        | 31, 5, 189
        | 31, 10, 75
        | 31, 1, 151
        | 31, -124, 153
        | 32, 3, 200
        | 32, 3, 128
        | 32, -18, 114
        | 32, -36, 9
        | 32, 0, 199
        | 32, 2, 22
        | 33, 1, 110
        | 33, 3, 80
        | 33, 6, 190
        | 33, 2, 42
        | 33, -1, 84
        | 33, 3, 72
        | 33, -1, 167
        | 33, 1, 149
        | 34, 7, 101
        | 34, 3, 23
        | 34, -1, 132
        | 34, 5, 20
        | 34, 7, 122
        | 35, 7, 189
        | 35, 10, 169
        | 35, 0, 94
        | 35, -4, 53
        | 35, 12, 137
        | 35, 6, 71
        | 35, 6, 22
        | 36, -7, 20
        | 36, 12, 126
        | 36, 12, 51
        | 36, 17, 195
        | 36, 20, 58
        | 36, 13, 156
        | 36, 23, 26
        | 37, 5, 86
        | 37, 10, 59
        | 37, 3, 103
        | 37, 0, 93
        | 37, 0, 85
        | 37, 11, 166
        | 38, -5, 22
        | 38, 23, 126
        | 38, 3, 71
        | 38, 10, 197
        | 38, 7, 200
        | 38, -9, 77
        | 38, 28, 24
        | 38, -2, 201
        | 39, 9, 185
        | 39, 18, 166
        | 39, 10, 97
        | 39, 12, 58
        | 39, 18, 157
        | 39, 8, 201
        | 39, 21, 141
        | 40, 8, 195
        | 40, 2, 166
        | 40, 12, 114
        | 40, -3, 28
        | 40, -22, 66
        | 40, 2, 201
        | 41, 20, 101
        | 41, 7, 91
        | 41, 17, 136
        | 41, 11, 129
        | 41, 2, 53
        | 42, -5, 61
        | 42, 0, 191
        | 42, 18, 128
        | 42, 25, 156
        | 42, 14, 89
        | 43, 6, 95
        | 43, 7, 178
        | 43, -2, 149
        | 43, 8, 93
        | 43, 8, 142
        | 43, 21, 175
        | 43, 6, 85
        | 43, 17, 103
        | 44, 10, 82
        | 44, 0, 158
        | 44, 5, 201
        | 44, 0, 112
        | 44, 6, 31
        | 45, 1, 176
        | 45, 3, 145
        | 45, 1, 58
        | 45, 0, 170
        | 45, 2, 90
        | 45, 2, 140
        | 45, 2, 53
        | 46, 19, 201
        | 46, 8, 103
        | 46, 16, 177
        | 46, 0, 175
        | 46, 18, 38
        | 46, 12, 156
        | 46, -2, 94
        | 46, 4, 71
        | 46, 13, 182
        | 46, 0, 22
        | 47, 2, 201
        | 47, 4, 58
        | 47, 6, 200
        | 47, 2, 166
        | 47, 8, 175
        | 47, 1, 126
        | 47, -639, 99
        | 48, 0, 84
        | 48, 17, 146
        | 48, 20, 134
        | 48, 21, 145
        | 48, 14, 21
        | 48, 1, 26
        | 49, 0, 90
        | 49, 0, 123
        | 49, 13, 149
        | 49, 10, 53
        | 49, 12, 115
        | 49, 7, 179
        | 49, 0, 76
        | 50, 7, 126
        | 50, -3, 64
        | 50, 16, 185
        | 50, 9, 68
        | 50, -4, 76
        | 50, -8, 82
        | 51, 0, 134
        | 51, 0, 101
        | 51, -646, 6
        | 51, -738, 5
        | 51, 2, 186
        | 51, 3, 178
        | 51, 0, 166
        | 51, 2, 129
        | 52, -4, 181
        | 52, -507, 174
        | 52, 11, 144
        | 52, 8, 201
        | 52, 7, 71
        | 52, 5, 182
        | 53, 3, 156
        | 53, -653, 174
        | 53, 12, 103
        | 53, 5, 24
        | 53, 6, 160
        | 53, 10, 201
        | 53, 6, 175
        | 54, 23, 153
        | 54, 24, 75
        | 54, -61, 185
        | 54, 4, 31
        | 54, 7, 23
        | 54, 9, 26
        | 54, 17, 178
        | 54, 1, 189
        | 54, 16, 71
        | 55, 17, 75
        | 55, 30, 124
        | 55, -3, 112
        | 55, 25, 22
        | 55, 1, 143
        | 55, 26, 61
        | 55, 2, 41
        | 56, 22, 53
        | 56, 20, 103
        | 56, -4, 160
        | 56, 8, 200
        | 56, 9, 189
        | 56, 19, 156
        | 57, 4, 156
        | 57, 0, 111
        | 57, 1, 69
        | 57, 3, 153
        | 57, 0, 34
        | 57, 2, 87
        | 57, 0, 85
        | 57, 3, 53
        | 57, 2, 185
        | 58, 6, 201
        | 58, 6, 28
        | 58, 7, 103
        | 58, 5, 83
        | 58, 7, 126
        | 58, -372, 166
        | 58, 6, 24
        | 58, -1, 71
        | 58, 7, 53
        | 58, 3, 189
        | 58, 0, 160
        | 59, 0, 163
        | 59, 0, 195
        | 59, 0, 160
        | 59, 2, 93
        | 59, 3, 72
        | 59, 3, 142
        | 59, 2, 90
        | 60, 12, 70
        | 60, 8, 142
        | 60, -2, 176
        | 60, 20, 76
        | 60, 10, 95
        | 60, 4, 157
        | 60, 3, 149
        | 61, 4, 142
        | 61, 6, 149
        | 61, 9, 103
        | 61, 11, 189
        | 61, 6, 26
        | 61, 0, 128
        | 61, -1, 68
        | 61, 5, 101
        | 61, 0, 129
        | 62, -2, 103
        | 62, 17, 19
        | 62, 11, 122
        | 62, 4, 191
        | 62, 14, 135
        | 62, 13, 186
        | 62, 14, 128
        | 62, -2, 64
        | 63, -8, 120
        | 63, 3, 54
        | 63, 13, 76
        | 64, 14, 23
        | 64, 30, 26
        | 64, -1, 172
        | 64, -5, 61
        | 64, 21, 72
        | 64, 9, 101
        | 64, 0, 126
        | 65, -3, 103
        | 65, 4, 160
        | 65, 5, 28
        | 65, 11, 56
        | 65, -403, 8
        | 65, 5, 24
        | 65, 0, 156
        | 66, 4, 72
        | 66, 0, 201
        | 66, 1, 200
        | 66, 5, 189
        | 66, -1, 40
        | 67, -2, 189
        | 67, 16, 97
        | 67, -8, 50
        | 67, 6, 64
        | 68, 10, 185
        | 68, -1, 160
        | 68, 5, 24
        | 68, 12, 156
        | 68, 12, 26
        | 68, 7, 103
        | 68, 9, 22
        | 68, -75, 64
        | 69, 0, 19
        | 69, 15, 112
        | 69, 13, 111
        | 69, -1, 41
        | 69, 25, 110
        | 69, 23, 186
        | 69, 3, 70
        | 69, 26, 118
        | 69, 17, 83
        | 70, 25, 83
        | 70, -2, 41
        | 70, 17, 157
        | 70, 17, 81
        | 70, -400, 67
        | 70, 25, 186
        | 71, 22, 83
        | 71, 30, 103
        | 71, 4, 200
        | 71, 30, 126
        | 71, 20, 53
        | 71, 1, 24
        | 72, 4, 201
        | 72, 18, 126
        | 72, 14, 128
        | 73, 17, 116
        | 73, -4, 102
        | 73, 21, 201
        | 73, -747, 125
        | 73, 8, 200
        | 73, 0, 192
        | 74, 0, 22
        | 74, 0, 83
        | 74, 0, 181
        | 74, 1, 175
        | 74, 3, 52
        | 74, 0, 46
        | 74, 2, 174
        | 74, 0, 137
        | 75, 9, 87
        | 75, 11, 126
        | 75, 16, 23
        | 75, -3, 191
        | 75, 2, 189
        | 75, 0, 83
        | 75, 0, 200
        | 76, 0, 86
        | 76, -504, 44
        | 76, -640, 18
        | 76, 5, 82
        | 77, 7, 83
        | 77, 3, 126
        | 77, 11, 137
        | 77, 10, 90
        | 77, 14, 88
        | 77, 20, 189
        | 77, 15, 28
        | 77, 25, 160
        | 78, 9, 31
        | 78, 5, 90
        | 78, 15, 149
        | 78, 0, 103
        | 78, 6, 85
        | 78, -4, 53
        | 78, -3, 58
        | 79, -3, 75
        | 79, 0, 156
        | 79, 2, 23
        | 79, 9, 22
        | 79, 10, 60
        | 79, 4, 123
        | 79, 10, 70
        | 79, 12, 191
        | 80, 2, 60
        | 80, 14, 64
        | 80, -3, 128
        | 80, 15, 180
        | 80, 1, 53
        | 80, 3, 84
        | 80, 3, 111
        | 80, 10, 194
        | 81, 15, 54
        | 81, -851, 79
        | 81, 8, 182
        | 81, -3, 122
        | 81, 12, 134
        | 81, -558, 167
        | 81, -376, 141
        | 81, -6, 162
        | 81, 13, 85
        | 81, -854, 10
        | 81, 13, 23
        | 81, -731, 29
        | 82, 6, 151
        | 82, -564, 57
        | 82, 10, 201
        | 82, -361, 67
        | 82, 2, 175
        | 82, 9, 31
        | 82, 2, 196
        | 82, 15, 172
        | 83, 4, 156
        | 83, 23, 24
        | 83, 4, 103
        | 83, 14, 175
        | 83, 16, 53
        | 84, 8, 26
        | 84, -895, 48
        | 84, 2, 161
        | 84, 0, 166
        | 84, 12, 111
        | 85, 7, 22
        | 85, -4, 166
        | 85, 4, 95
        | 85, 12, 98
        | 85, 10, 129
        | 85, 8, 53
        | 85, 2, 162
        | 85, 18, 31
        | 85, -5, 189
        | 85, 13, 200
        | 85, 9, 86
        | 85, 17, 151
        | 86, -2, 24
        | 86, 4, 71
        | 86, 10, 200
        | 86, 15, 83
        | 86, 12, 26
        | 86, 1, 98
        | 86, 7, 189
        | 87, 8, 53
        | 87, 1, 189
        | 87, 6, 71
        | 87, 20, 200
        | 87, 12, 166
        | 87, 5, 26
        | 87, 14, 103
        | 87, 4, 175
        | 88, -2, 137
        | 88, 14, 189
        | 88, 7, 160
        | 89, 0, 110
        | 89, -740, 15
        | 89, 5, 21
        | 89, 1, 175
        | 89, 4, 115
        | 89, 5, 34
        | 89, 4, 160
        | 89, -369, 179
        | 90, -548, 11
        | 90, -675, 101
        | 90, 8, 71
        | 90, -1, 182
        | 90, 5, 83
        | 90, -2, 189
        | 91, 16, 96
        | 91, -459, 29
        | 91, -853, 10
        | 91, -3, 189
        | 91, 28, 162
        | 91, 19, 195
        | 92, 2, 182
        | 92, 0, 156
        | 92, -55, 136
        | 92, 2, 85
        | 92, 1, 26
        | 92, 2, 72
        | 92, 2, 23
        | 92, 2, 54
        | 92, 2, 134
        | 93, 3, 113
        | 93, -104, 127
        | 93, 0, 189
        | 93, 3, 201
        | 93, 2, 103
        | 93, 0, 151
        | 93, 2, 26
        | 94, 11, 144
        | 94, 8, 201
        | 95, 1, 142
        | 95, 4, 71
        | 95, 6, 178
        | 95, 0, 160
        | 95, 7, 182
        | 95, 2, 103
        | 95, 8, 86
        | 96, 6, 134
        | 96, 2, 160
        | 96, 8, 87
        | 96, -1, 36
        | 96, 8, 64
        | 96, -1, 51
        | 97, -766, 105
        | 97, -2, 148
        | 98, 3, 178
        | 98, 1, 24
        | 98, 0, 83
        | 98, 1, 201
        | 98, 3, 195
        | 98, 2, 126
        | 98, 2, 22
        | 98, 0, 90
        | 98, 2, 103
        | 98, 0, 142
        | 99, 11, 160
        | 99, 9, 28
        | 99, 6, 147
        | 100, 7, 160
        | 100, 6, 144
        | 100, 8, 90
        | 100, 1, 22
        | 100, 6, 71
        | 100, 1, 53
        | 100, 2, 94
        | 101, 8, 28
        | 101, 5, 95
        | 101, 8, 26
        | 101, 0, 83
        | 101, 3, 182
        | 101, 0, 126
        | 101, -703, 75
        | 102, 13, 192
        | 102, -768, 108
        | 102, 27, 103
        | 102, 25, 201
        | 102, -3, 116
        | 103, -868, 183
        | 103, -739, 11
        | 103, 13, 201
        | 103, -864, 90
        | 103, -445, 108
        | 103, 8, 200
        | 103, -724, 28
        | 103, -675, 160
        | 103, -673, 12
        | 104, 4, 123
        | 104, 7, 111
        | 104, -2, 175
        | 104, -920, 15
        | 104, 9, 132
        | 104, 7, 25
        | 104, -1, 176
        | 105, 11, 182
        | 105, 0, 107
        | 105, 5, 24
        | 105, 12, 22
        | 106, -1, 139
        | 106, 12, 45
        | 106, 12, 136
        | 107, 3, 119
        | 107, 0, 123
        | 108, 2, 73
        | 108, 2, 201
        | 108, 3, 200
        | 109, 7, 59
        | 109, 12, 95
        | 109, 14, 85
        | 109, 6, 193
        | 109, 7, 31
        | 109, 3, 78
        | 109, 7, 191
        | 109, 9, 28
        | 110, 15, 20
        | 110, 17, 95
        | 110, 1, 72
        | 110, 18, 98
        | 110, 10, 28
        | 110, 14, 58
        | 110, 0, 83
        | 110, 20, 153
        | 111, 0, 21
        | 111, 0, 58
        | 111, 2, 42
        | 111, 9, 126
        | 111, 15, 72
        | 111, 10, 76
        | 111, 13, 123
        | 111, 4, 160
        | 111, 11, 31
        | 112, -870, 179
        | 112, 2, 90
        | 112, 5, 103
        | 112, 1, 53
        | 112, 4, 41
        | 112, -1, 185
        | 112, 14, 182
        | 112, 0, 155
        | 113, -1, 189
        | 113, -1, 134
        | 113, -134, 193
        | 113, -2, 126
        | 113, -1, 72
        | 113, 3, 152
        | 114, 15, 28
        | 114, 16, 87
        | 114, -26, 9
        | 114, 4, 24
        | 114, 6, 32
        | 114, 20, 200
        | 115, 5, 186
        | 115, 0, 97
        | 115, 3, 134
        | 115, -1, 51
        | 115, -1, 200
        | 115, 6, 90
        | 115, 2, 23
        | 115, 1, 64
        | 115, 5, 79
        | 115, 3, 28
        | 115, 0, 96
        | 115, 1, 87
        | 116, 4, 201
        | 116, 2, 103
        | 116, -581, 188
        | 116, 0, 200
        | 117, 0, 123
        | 117, 3, 191
        | 117, 0, 167
        | 117, 4, 71
        | 117, 0, 200
        | 118, -2, 178
        | 118, 3, 20
        | 118, 10, 49
        | 118, -3, 122
        | 118, 0, 201
        | 119, -2, 81
        | 119, 9, 162
        | 119, 2, 33
        | 119, 1, 189
        | 119, 4, 103
        | 119, 7, 178
        | 119, 7, 145
        | 119, 0, 155
        | 119, 6, 156
        | 120, 0, 129
        | 120, 1, 58
        | 120, 0, 122
        | 120, 10, 164
        | 121, 1, 76
        | 121, 1, 143
        | 121, 0, 115
        | 122, -581, 196
        | 122, 4, 151
        | 122, 19, 72
        | 122, 8, 136
        | 122, 11, 191
        | 122, -5, 149
        | 122, -715, 135
        | 122, 20, 103
        | 123, 0, 182
        | 123, 0, 112
        | 123, 1, 178
        | 123, 0, 201
        | 123, 3, 72
        | 124, 0, 155
        | 124, 1, 72
        | 124, 4, 186
        | 124, -6, 89
        | 124, 7, 85
        | 125, -615, 12
        | 125, 4, 192
        | 125, -3, 102
        | 125, 11, 130
        | 126, 11, 160
        | 126, 17, 200
        | 126, 2, 201
        | 126, 4, 103
        | 126, 5, 189
        | 126, 13, 28
        | 127, -2, 160
        | 127, 1, 134
        | 127, 3, 71
        | 127, 0, 28
        | 127, 3, 166
        | 127, 8, 85
        | 127, 5, 109
        | 128, 22, 87
        | 128, 26, 195
        | 128, 18, 142
        | 128, 0, 23
        | 128, 9, 178
        | 128, 24, 101
        | 128, -3, 162
        | 129, 9, 103
        | 129, -4, 24
        | 129, 16, 189
        | 129, 1, 142
        | 129, -100, 13
        | 129, -84, 153
        | 129, 10, 101
        | 129, -5, 87
        | 129, -2, 134
        | 129, 15, 149
        | 130, -1, 73
        | 130, 0, 192
        | 130, 10, 201
        | 130, 14, 102
        | 130, -2, 108
        | 130, 2, 200
        | 131, 1, 186
        | 131, 0, 39
        | 131, 2, 51
        | 131, 0, 45
        | 131, 0, 151
        | 131, 3, 53
        | 132, 11, 95
        | 132, 18, 76
        | 132, -2, 122
        | 132, 15, 112
        | 132, -5, 121
        | 132, 12, 178
        | 133, 0, 125
        | 133, 1, 130
        | 133, 2, 103
        | 133, 3, 108
        | 133, 0, 102
        | 134, 1, 175
        | 134, 2, 83
        | 134, 21, 160
        | 134, 0, 166
        | 134, -3, 182
        | 134, 9, 178
        | 134, 29, 75
        | 134, 16, 156
        | 135, 9, 122
        | 135, 5, 19
        | 135, 5, 23
        | 135, -1, 189
        | 135, -6, 51
        | 135, 12, 151
        | 135, -6, 92
        | 135, 8, 96
        | 136, 20, 24
        | 136, -6, 58
        | 136, 7, 175
        | 136, 6, 95
        | 136, 18, 126
        | 136, 3, 87
        | 136, 16, 54
        | 136, 6, 64
        | 137, 6, 175
        | 137, 16, 90
        | 137, 21, 83
        | 137, 23, 156
        | 137, 24, 22
        | 137, -2, 201
        | 138, 17, 196
        | 138, 4, 87
        | 138, 2, 161
        | 138, 0, 146
        | 138, 0, 131
        | 138, 7, 54
        | 139, 16, 31
        | 139, 8, 157
        | 139, 11, 58
        | 139, 5, 86
        | 139, -1, 150
        | 140, 0, 83
        | 140, 16, 190
        | 140, 9, 48
        | 141, 12, 153
        | 141, -670, 19
        | 141, 17, 81
        | 141, 17, 95
        | 142, -1, 53
        | 142, 6, 175
        | 142, 1, 26
        | 142, 3, 178
        | 143, -6, 53
        | 143, -2, 76
        | 143, 18, 64
        | 143, -4, 70
        | 143, 3, 196
        | 143, 4, 129
        | 144, 2, 201
        | 144, 10, 77
        | 144, 2, 137
        | 144, 10, 189
        | 144, -1, 22
        | 144, 8, 126
        | 145, -1, 34
        | 145, -2, 182
        | 145, 0, 129
        | 145, 8, 172
        | 145, 9, 190
        | 145, 0, 175
        | 145, 8, 86
        | 146, -5, 195
        | 146, 12, 170
        | 146, 4, 101
        | 146, -8, 78
        | 146, 14, 178
        | 146, 20, 128
        | 146, 27, 149
        | 146, 25, 90
        | 147, 0, 160
        | 147, -1, 103
        | 147, 3, 183
        | 147, 4, 53
        | 148, 9, 101
        | 148, 13, 70
        | 148, -670, 104
        | 148, 11, 87
        | 148, 5, 129
        | 148, -662, 106
        | 148, 0, 54
        | 149, 3, 201
        | 149, 9, 162
        | 149, 4, 90
        | 149, 9, 26
        | 149, 12, 71
        | 149, 7, 22
        | 149, 7, 58
        | 150, 3, 31
        | 150, -1, 136
        | 150, 10, 101
        | 150, 10, 143
        | 150, 12, 201
        | 150, -389, 14
        | 150, -3, 168
        | 151, 1, 156
        | 151, -1, 134
        | 151, 3, 129
        | 151, 3, 28
        | 151, -2, 142
        | 151, -141, 4
        | 151, -142, 152
        | 151, -175, 163
        | 152, 0, 200
        | 152, -2, 175
        | 152, 6, 78
        | 152, -2, 189
        | 152, -2, 162
        | 152, 1, 128
        | 153, 9, 87
        | 153, 15, 24
        | 153, 8, 78
        | 153, -1, 28
        | 154, 11, 178
        | 154, 14, 111
        | 154, 18, 171
        | 154, 18, 92
        | 154, 5, 143
        | 154, 7, 51
        | 155, -708, 105
        | 155, 3, 186
        | 155, 0, 166
        | 155, 2, 126
        | 155, 0, 39
        | 155, 0, 157
        | 155, 2, 198
        | 155, 3, 23
        | 156, 3, 103
        | 156, -558, 86
        | 156, 2, 28
        | 156, -924, 47
        | 156, -938, 144
        | 156, 1, 126
        | 156, 0, 200
        | 156, 2, 160
        | 156, 0, 201
        | 157, 19, 166
        | 157, 0, 195
        | 157, 5, 86
        | 157, 12, 92
        | 157, 8, 178
        | 157, -4, 126
        | 157, 7, 41
        | 158, 8, 83
        | 158, 7, 55
        | 158, 9, 41
        | 158, 7, 132
        | 158, 4, 189
        | 158, 1, 156
        | 158, 3, 185
        | 159, -879, 48
        | 159, 10, 122
        | 159, -3, 123
        | 159, 8, 58
        | 159, 6, 25
        | 159, 7, 22
        | 159, 6, 126
        | 160, 0, 189
        | 160, 1, 103
        | 160, 0, 28
        | 160, -845, 99
        | 160, 0, 201
        | 160, 2, 200
        | 160, -683, 183
        | 161, 1, 51
        | 161, 5, 58
        | 161, 12, 148
        | 161, 7, 175
        | 161, 8, 154
        | 161, 9, 126
        | 161, 4, 90
        | 162, 3, 101
        | 162, 2, 95
        | 162, 1, 86
        | 162, 1, 175
        | 162, 1, 166
        | 162, 3, 201
        | 162, 3, 90
        | 163, 9, 83
        | 163, 14, 72
        | 163, -129, 3
        | 163, -2, 93
        | 163, -4, 31
        | 163, 15, 128
        | 164, 2, 128
        | 164, 11, 23
        | 164, 1, 104
        | 164, -3, 81
        | 164, 12, 115
        | 164, -1, 178
        | 164, 2, 22
        | 165, -1, 200
        | 165, 3, 53
        | 165, -746, 46
        | 165, 15, 38
        | 166, 8, 58
        | 166, 4, 24
        | 166, 1, 160
        | 166, 6, 156
        | 166, 8, 28
        | 166, -2, 200
        | 166, 9, 189
        | 167, 9, 76
        | 167, 8, 123
        | 167, 10, 195
        | 167, 1, 194
        | 168, -5, 101
        | 168, 9, 112
        | 168, 6, 195
        | 168, -6, 138
        | 169, -1, 160
        | 169, 0, 200
        | 169, 2, 201
        | 169, 10, 22
        | 169, 0, 144
        | 169, -3, 83
        | 169, 6, 165
        | 170, 5, 22
        | 170, 1, 172
        | 170, 0, 101
        | 171, 0, 87
        | 171, 6, 85
        | 171, 0, 182
        | 171, 1, 151
        | 171, 6, 98
        | 171, 1, 28
        | 171, 0, 128
        | 171, 0, 146
        | 171, 1, 26
        | 171, 6, 68
        | 172, -5, 178
        | 172, 6, 78
        | 172, -5, 61
        | 172, 16, 87
        | 173, 17, 53
        | 173, -4, 157
        | 173, 9, 106
        | 173, 24, 153
        | 173, 13, 148
        | 174, 3, 53
        | 174, 0, 46
        | 174, 3, 22
        | 175, 13, 103
        | 175, -3, 200
        | 175, 6, 28
        | 175, 21, 156
        | 175, -7, 201
        | 175, -869, 2
        | 175, 27, 160
        | 175, -8, 189
        | 175, 24, 126
        | 176, 1, 159
        | 176, -2, 160
        | 176, 18, 189
        | 176, 1, 51
        | 177, 2, 52
        | 177, 0, 156
        | 177, 0, 83
        | 177, 3, 137
        | 177, 1, 30
        | 177, 0, 103
        | 177, 0, 88
        | 178, 3, 24
        | 178, -1, 53
        | 178, 6, 195
        | 178, -1, 103
        | 178, 3, 87
        | 178, 4, 200
        | 179, -1, 189
        | 179, 3, 141
        | 179, -2, 63
        | 179, 13, 172
        | 180, 3, 139
        | 180, 2, 117
        | 181, 5, 100
        | 181, -1, 28
        | 181, 10, 22
        | 182, 8, 126
        | 182, 0, 28
        | 182, 10, 24
        | 182, -5, 160
        | 182, 12, 71
        | 182, 5, 175
        | 182, 3, 53
        | 183, -5, 200
        | 183, -1, 28
        | 183, 0, 126
        | 183, 5, 24
        | 183, 0, 47
        | 184, 7, 71
        | 184, 7, 31
        | 184, 9, 149
        | 184, 4, 162
        | 184, 4, 83
        | 184, 6, 22
        | 184, 5, 37
        | 184, -2, 26
        | 185, 2, 28
        | 185, -4, 103
        | 185, 11, 151
        | 185, 9, 22
        | 185, -88, 171
        | 185, -79, 68
        | 185, -9, 92
        | 186, -675, 157
        | 186, 17, 172
        | 186, -5, 64
        | 186, 1, 166
        | 186, -567, 27
        | 186, 6, 95
        | 186, -4, 19
        | 186, 18, 24
        | 186, 7, 141
        | 187, 15, 198
        | 187, 10, 83
        | 187, 7, 121
        | 187, 2, 117
        | 187, 13, 200
        | 187, 12, 134
        | 187, 11, 36
        | 187, 7, 27
        | 187, 0, 189
        | 187, 1, 31
        | 188, 2, 116
        | 188, 0, 102
        | 188, 0, 130
        | 188, -1, 103
        | 188, 3, 125
        | 188, 0, 133
        | 189, -658, 174
        | 189, 16, 200
        | 189, 0, 28
        | 189, -443, 65
        | 189, 0, 103
        | 190, 26, 84
        | 190, -1, 166
        | 190, 6, 142
        | 190, 6, 101
        | 190, 26, 53
        | 190, 15, 75
        | 191, 7, 142
        | 191, -3, 72
        | 191, -3, 195
        | 191, 6, 103
        | 191, 4, 182
        | 191, 0, 160
        | 191, 0, 22
        | 191, 5, 95
        | 191, -2, 128
        | 191, 1, 162
        | 192, 9, 116
        | 192, 0, 103
        | 192, -5, 201
        | 192, 10, 200
        | 193, -1, 83
        | 193, 1, 152
        | 193, 5, 129
        | 193, -89, 3
        | 193, 8, 184
        | 193, 13, 90
        | 193, 14, 86
        | 194, 0, 136
        | 194, 15, 173
        | 194, 7, 111
        | 194, 6, 142
        | 195, 7, 24
        | 195, 0, 58
        | 195, 6, 200
        | 195, 0, 103
        | 195, -3, 166
        | 195, 1, 189
        | 195, 16, 126
        | 195, 3, 83
        | 195, -3, 28
        | 195, 15, 71
        | 196, -627, 76
        | 196, 18, 28
        | 196, -2, 39
        | 196, -574, 155
        | 196, 20, 90
        | 196, -6, 26
        | 196, 0, 128
        | 197, 16, 103
        | 197, 10, 83
        | 197, -2, 126
        | 197, -6, 160
        | 197, 12, 156
        | 197, 12, 200
        | 197, 2, 52
        | 197, 22, 22
        | 198, 3, 172
        | 198, -428, 57
        | 198, -2, 68
        | 198, 0, 26
        | 198, -893, 132
        | 198, 1, 143
        | 198, 4, 126
        | 198, 8, 182
        | 199, 5, 86
        | 199, 0, 128
        | 199, -36, 9
        | 199, -1, 101
        | 199, 9, 72
        | 199, 4, 156
        | 199, 7, 126
        | 200, -822, 197
        | 200, 10, 201
        | 200, -387, 102
        | 200, -689, 134
        | 200, -808, 23
        | 201, -720, 188
        | 201, -629, 142
        | 201, 10, 202 |];
